5 5
8 3 2 5 3 7 4 19 4 2 6 1 14 3 4 4 19 2 4 10 1 7 1 5 14 5 1 19 4 8 2 5 3 14 5 17 5 4 20 5 14 3 2 1 17 2 4 1 4 9 5 2 17 3 10 5 11 4 20 1 19
7 2 2 19 1 3 1 1 20 5 4 16 3 6 1 16 2 3 5 3 3 1 17 3 2 2 2 5 3 14 4 5 2 14 5 9 1 16 2 1 2 5 7 1 3 18
6 1 4 16 5 4 20 1 4 2 12 5 12 3 9 5 5 13 2 7 1 9 3 11 4 2 1 3 12 4 5 10 1 6 4 17 3 13 5 2 8 4 10 3 4 5 6 1 4
7 4 5 10 4 10 1 5 3 13 1 3 17 1 4 3 1 3 6 1 4 14 4 1 19 4 14 5 12 3 18 5 3 3 2 16 4 17 5 10 1 20
5 2 5 10 2 11 5 1 16 5 4 4 14 2 5 3 20 5 1 3 5 8 3 8 4 4 2 19 5 4 11 5 9 3 10 1 16 2 10 2 2 18 4 11